13
-1 100 44 223 256 69 298 172 304 343 504 361 292 
100 -1 144 205 157 165 199 165 223 246 407 280 195 
44 144 -1 245 301 34 343 193 343 387 547 400 336 
223 205 245 -1 283 232 264 367 183 375 409 450 333 
256 157 301 283 -1 322 75 237 175 95 275 172 49 
69 165 34 232 322 -1 358 227 349 411 559 430 360 
298 199 343 264 75 358 -1 309 115 125 209 228 104 
172 165 193 367 237 227 309 -1 372 284 512 248 243 
304 223 343 183 175 349 115 372 -1 240 227 342 216 
343 246 387 375 95 411 125 284 240 -1 253 111 51 
504 407 547 409 275 559 209 512 227 253 -1 357 275 
361 280 400 450 172 430 228 248 342 111 357 -1 126 
292 195 336 333 49 360 104 243 216 51 275 126 -1 
